24
12
0 13 15 16 17 18 19 20 21 22 23
1 12 15 19 20 22 23
2 12 16 18 19 20 21 23
3 12 13 15 18 22 23
4 12 13 15 17 18 19 20 22 23
5 12 13 14 15 19 20 21 23
6 12 16 18 21 22
7 12 13 18 20 21 22
8 13 23
9 16 21 23
10 13 16 21
11 14 19 22
